Problem:    m1_int
Rows:       89
Columns:    60 (57 integer, 57 binary)
Non-zeros:  219
Status:     INTEGER OPTIMAL
Objective:  f = 548 (MINimum)

   No.   Row name        Activity     Lower bound   Upper bound
------ ------------    ------------- ------------- -------------
     1 f                         548                             
     2 OneInRow[1]                 1                           1 
     3 OneInRow[2]                 1                           1 
     4 OneInRow[3]                 1                           1 
     5 OneInRow[4]                 1                           1 
     6 OneInRow[5]                 1                           1 
     7 OneInRow[6]                 1                           1 
     8 OneInRow[7]                 1                           1 
     9 OneInRow[8]                 1                           1 
    10 OneInRow[9]                 1                           1 
    11 OneInRow[10]                1                           1 
    12 OneInRow[11]                1                           1 
    13 OneInRow[12]                1                           1 
    14 OneInRow[13]                0                           1 
    15 OneInRow[14]                0                           1 
    16 OneInRow[15]                0                           1 
    17 OneInRow[16]                0                           1 
    18 OneInRow[17]                0                           1 
    19 OneInRow[18]                0                           1 
    20 OneInRow[19]                0                           1 
    21 WorkDone[1]                 4             4             = 
    22 WorkDone[2]                 4             4             = 
    23 WorkDone[3]                 4             4             = 
    24 Wait[2,1]                   0            -0             = 
    25 Wait[2,2]                   0            -0             = 
    26 Wait[3,1]                   0            -0             = 
    27 Wait[3,2]                   0            -0             = 
    28 Wait[3,3]                   0            -0             = 
    29 Wait[3,4]                   0            -0             = 
    30 Wait[3,5]                   0            -0             = 
    31 Wait[3,6]                   0            -0             = 
    32 Wait[3,7]                   0            -0             = 
    33 Profit[1,1]                 3            -0               
    34 Profit[1,2]                 2            -0               
    35 Profit[1,3]                 1            -0               
    36 Profit[1,4]                 0            -0               
    37 Profit[1,5]                 4            -0               
    38 Profit[1,6]                 4            -0               
    39 Profit[1,7]                 4            -0               
    40 Profit[1,8]                 4            -0               
    41 Profit[1,9]                 4            -0               
    42 Profit[1,10]                4            -0               
    43 Profit[1,11]                4            -0               
    44 Profit[1,12]                4            -0               
    45 Profit[1,13]                4            -0               
    46 Profit[1,14]                4            -0               
    47 Profit[1,15]                4            -0               
    48 Profit[1,16]                4            -0               
    49 Profit[1,17]                4            -0               
    50 Profit[1,18]                4            -0               
    51 Profit[1,19]                4            -0               
    52 Profit[2,1]                 8            -0               
    53 Profit[2,2]                 8            -0               
    54 Profit[2,3]                 8            -0               
    55 Profit[2,4]                 8            -0               
    56 Profit[2,5]                 3            -0               
    57 Profit[2,6]                 2            -0               
    58 Profit[2,7]                 1            -0               
    59 Profit[2,8]                 0            -0               
    60 Profit[2,9]                 8            -0               
    61 Profit[2,10]                8            -0               
    62 Profit[2,11]                8            -0               
    63 Profit[2,12]                8            -0               
    64 Profit[2,13]                8            -0               
    65 Profit[2,14]                8            -0               
    66 Profit[2,15]                8            -0               
    67 Profit[2,16]                8            -0               
    68 Profit[2,17]                8            -0               
    69 Profit[2,18]                8            -0               
    70 Profit[2,19]                8            -0               
    71 Profit[3,1]                12            -0               
    72 Profit[3,2]                12            -0               
    73 Profit[3,3]                12            -0               
    74 Profit[3,4]                12            -0               
    75 Profit[3,5]                12            -0               
    76 Profit[3,6]                12            -0               
    77 Profit[3,7]                12            -0               
    78 Profit[3,8]                12            -0               
    79 Profit[3,9]                 3            -0               
    80 Profit[3,10]                2            -0               
    81 Profit[3,11]                1            -0               
    82 Profit[3,12]                0            -0               
    83 Profit[3,13]               12            -0               
    84 Profit[3,14]               12            -0               
    85 Profit[3,15]               12            -0               
    86 Profit[3,16]               12            -0               
    87 Profit[3,17]               12            -0               
    88 Profit[3,18]               12            -0               
    89 Profit[3,19]               12            -0               

   No. Column name       Activity     Lower bound   Upper bound
------ ------------    ------------- ------------- -------------
     1 x[1,1]       *              1             0             1 
     2 x[2,1]       *              0             0             1 
     3 x[3,1]       *              0             0             1 
     4 x[1,2]       *              1             0             1 
     5 x[2,2]       *              0             0             1 
     6 x[3,2]       *              0             0             1 
     7 x[1,3]       *              1             0             1 
     8 x[2,3]       *              0             0             1 
     9 x[3,3]       *              0             0             1 
    10 x[1,4]       *              1             0             1 
    11 x[2,4]       *              0             0             1 
    12 x[3,4]       *              0             0             1 
    13 x[1,5]       *              0             0             1 
    14 x[2,5]       *              1             0             1 
    15 x[3,5]       *              0             0             1 
    16 x[1,6]       *              0             0             1 
    17 x[2,6]       *              1             0             1 
    18 x[3,6]       *              0             0             1 
    19 x[1,7]       *              0             0             1 
    20 x[2,7]       *              1             0             1 
    21 x[3,7]       *              0             0             1 
    22 x[1,8]       *              0             0             1 
    23 x[2,8]       *              1             0             1 
    24 x[3,8]       *              0             0             1 
    25 x[1,9]       *              0             0             1 
    26 x[2,9]       *              0             0             1 
    27 x[3,9]       *              1             0             1 
    28 x[1,10]      *              0             0             1 
    29 x[2,10]      *              0             0             1 
    30 x[3,10]      *              1             0             1 
    31 x[1,11]      *              0             0             1 
    32 x[2,11]      *              0             0             1 
    33 x[3,11]      *              1             0             1 
    34 x[1,12]      *              0             0             1 
    35 x[2,12]      *              0             0             1 
    36 x[3,12]      *              1             0             1 
    37 x[1,13]      *              0             0             1 
    38 x[2,13]      *              0             0             1 
    39 x[3,13]      *              0             0             1 
    40 x[1,14]      *              0             0             1 
    41 x[2,14]      *              0             0             1 
    42 x[3,14]      *              0             0             1 
    43 x[1,15]      *              0             0             1 
    44 x[2,15]      *              0             0             1 
    45 x[3,15]      *              0             0             1 
    46 x[1,16]      *              0             0             1 
    47 x[2,16]      *              0             0             1 
    48 x[3,16]      *              0             0             1 
    49 x[1,17]      *              0             0             1 
    50 x[2,17]      *              0             0             1 
    51 x[3,17]      *              0             0             1 
    52 x[1,18]      *              0             0             1 
    53 x[2,18]      *              0             0             1 
    54 x[3,18]      *              0             0             1 
    55 x[1,19]      *              0             0             1 
    56 x[2,19]      *              0             0             1 
    57 x[3,19]      *              0             0             1 
    58 y[1,1]                      4                             
    59 y[2,1]                      8                             
    60 y[3,1]                     12                             

Integer feasibility conditions:

KKT.PE: max.abs.err = 0.00e+000 on row 0
        max.rel.err = 0.00e+000 on row 0
        High quality

KKT.PB: max.abs.err = 0.00e+000 on row 0
        max.rel.err = 0.00e+000 on row 0
        High quality

End of output
